# Solution for model LP: ACOPF
# Objective value = 7.8588859480949418e+02
obj_vars[1,0] 0
obj_vars[1,1] 1.8376820730009737e+00
obj_vars[1,2] 0
obj_vars[1,3] 0
obj_vars[5,0] 0
obj_vars[5,1] 0
obj_vars[5,2] 5.0815765609104679e-01
obj_vars[5,3] 0
p_n[1] 1.8376820730009737e+00
p_n[2] 0
p_n[3] 0
p_n[4] 0
p_n[5] 5.0815765609104679e-01
q_n[1] -1.1919527636138127e-01
q_n[2] 0
q_n[3] 0
q_n[4] 0
q_n[5] -0.3
v_n_r[1] 1.0031453234215424e+00
v_n_r[2] 9.5783361865684513e-01
v_n_r[3] 9.5124999999999993e-01
v_n_r[4] 1.0762287207270382e+00
v_n_r[5] 1.1
v_n_j[1] 0.983354530806653
v_n_j[2] 9.2361665700376649e-01
v_n_j[3] 9.5772535290734873e-01
v_n_j[4] 1.0371480830132740e+00
v_n_j[5] 1.1
v_n_sq[1] 1.0062906468430848e+00
v_n_sq[2] 9.1566723731369026e-01
v_n_sq[3] 0.9025
v_n_sq[4] 1.1524574414540765e+00
v_n_sq[5] 1.2000000000000002e+00
i_n_r[1] 1.8376820730009737e+00
i_n_r[2] -1.3
i_n_r[3] -1.3
i_n_r[4] -0.65
i_n_r[5] 5.0815765609104679e-01
i_n_j[1] 1.1919527636138127e-01
i_n_j[2] 0.2
i_n_j[3] 0.2
i_n_j[4] 0.1
i_n_j[5] 0.3
i_k_r[1,2] 7.4112132297398725e-01
i_k_r[1,3] 1.0965607500269865e+00
i_k_r[2,3] -2.0068687118024897e-01
i_k_r[2,4] -3.5819180584576382e-01
i_k_r[3,5] -4.0412612115326463e-01
i_k_r[4,5] -5.6701973934193539e-01
i_k_r[2,1] -7.4112132297398725e-01
i_k_r[3,1] -1.0965607500269847e+00
i_k_r[3,2] 2.0068687118024930e-01
i_k_r[4,2] -8.2980260658064631e-02
i_k_r[5,3] -0.0588620832508886
i_k_r[5,4] 5.6701973934193539e-01
i_k_j[1,2] -1.7407613161930868e-01
i_k_j[1,3] 2.9327140798068996e-01
i_k_j[2,3] -2.2924110710513990e-01
i_k_j[2,4] 2.5516497548583028e-01
i_k_j[3,5] 2.6403030087554330e-01
i_k_j[4,5] -1.0249905087554279e-01
i_k_j[2,1] 1.7407613161930963e-01
i_k_j[3,1] -2.9327140798068374e-01
i_k_j[3,2] 2.2924110710514045e-01
i_k_j[4,2] 2.0249905087554279e-01
i_k_j[5,3] 1.9750094912445654e-01
i_k_j[5,4] 1.0249905087554345e-01
i_k_sq[1,2] 0
i_k_sq[1,3] 0
i_k_sq[2,3] 0
i_k_sq[2,4] 6.4199238968623631e-02
i_k_sq[3,5] 6.8188635393994487e-02
i_k_sq[4,5] 0
i_k_sq[2,1] 0
i_k_sq[3,1] 0
i_k_sq[3,2] 0
i_k_sq[4,2] 4.0499572893994251e-02
i_k_sq[5,3] 3.8250427106005444e-02
i_k_sq[5,4] 0
pn_viol_l[1] 0
pn_viol_l[2] 0
pn_viol_l[3] 0
pn_viol_l[4] 0
pn_viol_l[5] 0
pn_viol_u[1] 0
pn_viol_u[2] 0
pn_viol_u[3] 0
pn_viol_u[4] 0
pn_viol_u[5] 0
qn_viol_l[1] 0
qn_viol_l[2] 0
qn_viol_l[3] 0
qn_viol_l[4] 0
qn_viol_l[5] 0
qn_viol_u[1] 0
qn_viol_u[2] 0
qn_viol_u[3] 0
qn_viol_u[4] 0
qn_viol_u[5] 0
vn_viol_l[1] 0
vn_viol_l[2] 0
vn_viol_l[3] 0
vn_viol_l[4] 0
vn_viol_l[5] 0
vn_viol_u[1] 0
vn_viol_u[2] 0
vn_viol_u[3] 0
vn_viol_u[4] 0
vn_viol_u[5] 0
ik_viol_u[1,2] 0
ik_viol_u[1,3] 0
ik_viol_u[2,3] 0
ik_viol_u[2,4] 0
ik_viol_u[3,5] 0
ik_viol_u[4,5] 0
ik_viol_u[2,1] 0
ik_viol_u[3,1] 0
ik_viol_u[3,2] 0
ik_viol_u[4,2] 0
ik_viol_u[5,3] 0
ik_viol_u[5,4] 0
